% MIT License
%
% Copyright (c) 2021 Johan Ludde Wessén
%
% Permission is hereby granted, free of charge, to any person obtaining a copy of this software and associated documentation files (the "Software"), to deal in the Software without restriction, including without limitation the rights to use, copy, modify, merge, publish, distribute, sublicense, and/or sell copies of the Software, and to permit persons to whom the Software is furnished to do so, subject to the following conditions:

%-----------------------------------------------------------------------------%
% Dual Arm Multi Capacity Multi Tool Scheduling / Routing
% YuMi + Workspace Configuration
% Auto Generated by python scrip, authored by Ludde Wessen
%-----------------------------------------------------------------------------%


%                           Tray 1,   Tray 2,   Tray 3,   Tray 4,   Tray 5,   Tray 6,   Tray 7,   Tray 8, Camera 1, Camera 2, Camera 3, Camera 4, Camera 5, Camera 6, Camera 7, Camera 8,Fixture 1,Fixture 2,Fixture 3, AirGun 1, Output 1,
%                                1,        2,        3,        4,        5,        6,        7,        8,        9,       10,       11,       12,       13,       14,       15,       16,       17,       18,       19,       20,       21,
wait_zones_left_data  = [     {  },     {  },     {  }, { 3, 5 }, { 4, 6 },    { 5 }, { 5, 6 }, { 6, 7 },     {  },     {  },     {  },    { 3 },    { 4 },    { 5 },    { 6 }, { 6, 7 },    { 5 },    { 5 },    { 5 },    { 6 },      {  }];
wait_zones_right_data = [    { 0 }, { 0, 1 }, { 1, 2 }, { 0, 3 }, { 1, 4 },     {  },     {  },     {  },    { 0 },    { 1 }, { 1, 2 },    { 3 },    { 4 },     {  },     {  },     {  },    { 0 },    { 0 },    { 0 },     {  },     { 1 }];
work_zones_left_data  = [     {  },     {  },     {  }, { 3, 5 }, { 4, 6 },    { 5 }, { 5, 6 }, { 6, 7 },     {  },     {  },     {  },    { 3 },    { 4 },    { 5 },    { 6 }, { 6, 7 }, { 8, 5 }, { 9, 5 },   { 10 },    { 6 },      {  }];
work_zones_right_data = [    { 0 }, { 0, 1 }, { 1, 2 }, { 0, 3 }, { 1, 4 },     {  },     {  },     {  },    { 0 },    { 1 }, { 1, 2 },    { 3 },    { 4 },     {  },     {  },     {  }, { 8, 0 }, { 0, 9 },   { 10 },     {  },     { 1 }];

travel_zones_left_data = [|
           { },          { },          { },          { },          { },          { },          { },          { },          { },          { },          { },          { },          { },          { },          { },          { },          { },          { },          { },          { },          { }
 |         { },          { },          { },          { },          { },          { },          { },          { },          { },          { },          { },          { },          { },          { },          { },          { },          { },          { },          { },          { },          { }
 |         { },          { },          { },          { },          { },          { },          { },          { },          { },          { },          { },          { },          { },          { },          { },          { },          { },          { },          { },          { },          { }
 |         { },          { },          { },       {3, 5}, {3, 4, 5, 6},       {3, 5},    {3, 5, 6}, {3, 5, 6, 7},          { },          { },          { },       {3, 5},    {3, 4, 5},       {3, 5},    {3, 5, 6}, {3, 5, 6, 7},       {3, 5},       {3, 5},       {3, 5},    {3, 5, 6},          { }
 |         { },          { },          { }, {3, 4, 5, 6},       {4, 6},    {4, 5, 6},    {4, 5, 6},    {4, 6, 7},          { },          { },          { },    {3, 4, 6},       {4, 6},    {4, 5, 6},       {4, 6},    {4, 6, 7},    {4, 5, 6},    {4, 5, 6},    {4, 5, 6},       {4, 6},          { }
 |         { },          { },          { },       {3, 5},    {4, 5, 6},          {5},       {5, 6},    {5, 6, 7},          { },          { },          { },       {3, 5},       {4, 5},          {5},       {5, 6},    {5, 6, 7},          {5},          {5},          {5},       {5, 6},          { }
 |         { },          { },          { },    {3, 5, 6},    {4, 5, 6},       {5, 6},       {5, 6},    {5, 6, 7},          { },          { },          { },    {3, 5, 6},    {4, 5, 6},       {5, 6},       {5, 6},    {5, 6, 7},       {5, 6},       {5, 6},       {5, 6},       {5, 6},          { }
 |         { },          { },          { }, {3, 5, 6, 7},    {4, 6, 7},    {5, 6, 7},    {5, 6, 7},       {6, 7},          { },          { },          { },    {3, 6, 7},    {4, 6, 7},    {5, 6, 7},       {6, 7},       {6, 7},    {5, 6, 7},    {5, 6, 7},    {5, 6, 7},       {6, 7},          { }
 |         { },          { },          { },          { },          { },          { },          { },          { },          { },          { },          { },          { },          { },          { },          { },          { },          { },          { },          { },          { },          { }
 |         { },          { },          { },          { },          { },          { },          { },          { },          { },          { },          { },          { },          { },          { },          { },          { },          { },          { },          { },          { },          { }
 |         { },          { },          { },          { },          { },          { },          { },          { },          { },          { },          { },          { },          { },          { },          { },          { },          { },          { },          { },          { },          { }
 |         { },          { },          { },       {3, 5},    {3, 4, 6},       {3, 5},    {3, 5, 6},    {3, 6, 7},          { },          { },          { },          {3},       {3, 4},       {3, 5},       {3, 6},    {3, 6, 7},       {3, 5},       {3, 5},       {3, 5},       {3, 6},          { }
 |         { },          { },          { },    {3, 4, 5},       {4, 6},       {4, 5},    {4, 5, 6},    {4, 6, 7},          { },          { },          { },       {3, 4},          {4},       {4, 5},       {4, 6},    {4, 6, 7},       {4, 5},       {4, 5},       {4, 5},       {4, 6},          { }
 |         { },          { },          { },       {3, 5},    {4, 5, 6},          {5},       {5, 6},    {5, 6, 7},          { },          { },          { },       {3, 5},       {4, 5},          {5},       {5, 6},    {5, 6, 7},          {5},          {5},          {5},       {5, 6},          { }
 |         { },          { },          { },    {3, 5, 6},       {4, 6},       {5, 6},       {5, 6},       {6, 7},          { },          { },          { },       {3, 6},       {4, 6},       {5, 6},          {6},       {6, 7},       {5, 6},       {5, 6},       {5, 6},          {6},          { }
 |         { },          { },          { }, {3, 5, 6, 7},    {4, 6, 7},    {5, 6, 7},    {5, 6, 7},       {6, 7},          { },          { },          { },    {3, 6, 7},    {4, 6, 7},    {5, 6, 7},       {6, 7},       {6, 7},    {5, 6, 7},    {5, 6, 7},    {5, 6, 7},       {6, 7},          { }
 |         { },          { },          { },       {3, 5},    {4, 5, 6},          {5},       {5, 6},    {5, 6, 7},          { },          { },          { },       {3, 5},       {4, 5},          {5},       {5, 6},    {5, 6, 7},          {5},          {5},          {5},       {5, 6},          { }
 |         { },          { },          { },       {3, 5},    {4, 5, 6},          {5},       {5, 6},    {5, 6, 7},          { },          { },          { },       {3, 5},       {4, 5},          {5},       {5, 6},    {5, 6, 7},          {5},          {5},          {5},       {5, 6},          { }
 |         { },          { },          { },       {3, 5},    {4, 5, 6},          {5},       {5, 6},    {5, 6, 7},          { },          { },          { },       {3, 5},       {4, 5},          {5},       {5, 6},    {5, 6, 7},          {5},          {5},          {5},       {5, 6},          { }
 |         { },          { },          { },    {3, 5, 6},       {4, 6},       {5, 6},       {5, 6},       {6, 7},          { },          { },          { },       {3, 6},       {4, 6},       {5, 6},          {6},       {6, 7},       {5, 6},       {5, 6},       {5, 6},          {6},          { }
 |         { },          { },          { },          { },          { },          { },          { },          { },          { },          { },          { },          { },          { },          { },          { },          { },          { },          { },          { },          { },          { }
|];

travel_zones_right_data = [|
           {0},       {0, 1},    {0, 1, 2},       {0, 3},    {0, 1, 4},          { },          { },          { },          {0},       {0, 1},    {0, 1, 2},       {0, 3},       {0, 4},          { },          { },          { },          {0},          {0},          {0},          { },       {0, 1}
 |      {0, 1},       {0, 1},    {0, 1, 2},    {0, 1, 3},    {0, 1, 4},          { },          { },          { },       {0, 1},       {0, 1},    {0, 1, 2},    {0, 1, 3},    {0, 1, 4},          { },          { },          { },       {0, 1},       {0, 1},       {0, 1},          { },       {0, 1}
 |   {0, 1, 2},    {0, 1, 2},       {1, 2}, {0, 1, 2, 3},    {1, 2, 4},          { },          { },          { },    {0, 1, 2},       {1, 2},       {1, 2},    {1, 2, 3},    {1, 2, 4},          { },          { },          { },    {0, 1, 2},    {0, 1, 2},    {0, 1, 2},          { },       {1, 2}
 |      {0, 3},    {0, 1, 3}, {0, 1, 2, 3},       {0, 3}, {0, 1, 3, 4},          { },          { },          { },       {0, 3},    {0, 1, 3}, {0, 1, 2, 3},       {0, 3},    {0, 3, 4},          { },          { },          { },       {0, 3},       {0, 3},       {0, 3},          { },    {0, 1, 3}
 |   {0, 1, 4},    {0, 1, 4},    {1, 2, 4}, {0, 1, 3, 4},       {1, 4},          { },          { },          { },    {0, 1, 4},       {1, 4},    {1, 2, 4},    {1, 3, 4},       {1, 4},          { },          { },          { },    {0, 1, 4},    {0, 1, 4},    {0, 1, 4},          { },       {1, 4}
 |         { },          { },          { },          { },          { },          { },          { },          { },          { },          { },          { },          { },          { },          { },          { },          { },          { },          { },          { },          { },          { }
 |         { },          { },          { },          { },          { },          { },          { },          { },          { },          { },          { },          { },          { },          { },          { },          { },          { },          { },          { },          { },          { }
 |         { },          { },          { },          { },          { },          { },          { },          { },          { },          { },          { },          { },          { },          { },          { },          { },          { },          { },          { },          { },          { }
 |         {0},       {0, 1},    {0, 1, 2},       {0, 3},    {0, 1, 4},          { },          { },          { },          {0},       {0, 1},    {0, 1, 2},       {0, 3},       {0, 4},          { },          { },          { },          {0},          {0},          {0},          { },       {0, 1}
 |      {0, 1},       {0, 1},       {1, 2},    {0, 1, 3},       {1, 4},          { },          { },          { },       {0, 1},          {1},       {1, 2},       {1, 3},       {1, 4},          { },          { },          { },       {0, 1},       {0, 1},       {0, 1},          { },          {1}
 |   {0, 1, 2},    {0, 1, 2},       {1, 2}, {0, 1, 2, 3},    {1, 2, 4},          { },          { },          { },    {0, 1, 2},       {1, 2},       {1, 2},    {1, 2, 3},    {1, 2, 4},          { },          { },          { },    {0, 1, 2},    {0, 1, 2},    {0, 1, 2},          { },       {1, 2}
 |      {0, 3},    {0, 1, 3},    {1, 2, 3},       {0, 3},    {1, 3, 4},          { },          { },          { },       {0, 3},       {1, 3},    {1, 2, 3},          {3},       {3, 4},          { },          { },          { },       {0, 3},       {0, 3},       {0, 3},          { },       {1, 3}
 |      {0, 4},    {0, 1, 4},    {1, 2, 4},    {0, 3, 4},       {1, 4},          { },          { },          { },       {0, 4},       {1, 4},    {1, 2, 4},       {3, 4},          {4},          { },          { },          { },       {0, 4},       {0, 4},       {0, 4},          { },       {1, 4}
 |         { },          { },          { },          { },          { },          { },          { },          { },          { },          { },          { },          { },          { },          { },          { },          { },          { },          { },          { },          { },          { }
 |         { },          { },          { },          { },          { },          { },          { },          { },          { },          { },          { },          { },          { },          { },          { },          { },          { },          { },          { },          { },          { }
 |         { },          { },          { },          { },          { },          { },          { },          { },          { },          { },          { },          { },          { },          { },          { },          { },          { },          { },          { },          { },          { }
 |         {0},       {0, 1},    {0, 1, 2},       {0, 3},    {0, 1, 4},          { },          { },          { },          {0},       {0, 1},    {0, 1, 2},       {0, 3},       {0, 4},          { },          { },          { },          {0},          {0},          {0},          { },       {0, 1}
 |         {0},       {0, 1},    {0, 1, 2},       {0, 3},    {0, 1, 4},          { },          { },          { },          {0},       {0, 1},    {0, 1, 2},       {0, 3},       {0, 4},          { },          { },          { },          {0},          {0},          {0},          { },       {0, 1}
 |         {0},       {0, 1},    {0, 1, 2},       {0, 3},    {0, 1, 4},          { },          { },          { },          {0},       {0, 1},    {0, 1, 2},       {0, 3},       {0, 4},          { },          { },          { },          {0},          {0},          {0},          { },       {0, 1}
 |         { },          { },          { },          { },          { },          { },          { },          { },          { },          { },          { },          { },          { },          { },          { },          { },          { },          { },          { },          { },          { }
 |      {0, 1},       {0, 1},       {1, 2},    {0, 1, 3},       {1, 4},          { },          { },          { },       {0, 1},          {1},       {1, 2},       {1, 3},       {1, 4},          { },          { },          { },       {0, 1},       {0, 1},       {0, 1},          { },          {1}
|];
